num_offers = 26;
start = [52, 52, 52, 52, 52, 52, 52, 15, 15, 15, 15, 15, 15, 15, 28, 28, 28, 28, 28, 28, 28, 17, 7, 7, 7, 28];
end = [89, 89, 89, 89, 89, 89, 89, 84, 84, 84, 84, 84, 84, 84, 38, 38, 38, 38, 38, 38, 38, 26, 30, 30, 30, 83];
price = [1748, 1748, 1748, 1748, 1748, 1748, 1748, 5880, 5880, 5880, 5880, 5880, 5880, 5880, 1056, 1056, 1056, 1056, 1056, 1056, 1056, 910, 600, 600, 600, 2072];
num_halls = 10;
capacity = [516,516,842,842,842,842,367,693,693,693];
requirement = [519,519,519,519,519,844,844,370,370,370,370,370,370,370,370,728,728,728,728,728,728,254,254,254,254,580];
